 # Version information for this restart file 
 # current date 2021-06-01 23:53:24.502
 # current working dir /scratch/snx3000/ramador/exercise_14/MTD-new
 # Program compiled at                              Wed Mar 17 13:03:11 CET 2021
 # Program compiled on                                                  daint101
 # Program compiled for                                    CP2K-7.1-CrayGNU-cuda
 # Source code revision number                                       git:e635599
 &GLOBAL
   PRINT_LEVEL  LOW
   PROJECT_NAME gr2hno3_mtd_3cv_p1
   RUN_TYPE  MD
 &END GLOBAL
 &MOTION
   &MD
     ENSEMBLE  NVT
     STEPS  20000
     TIMESTEP     9.9999999999999989E-01
     STEP_START_VAL  20000
     TIME_START_VAL     2.0000000000007909E+04
     ECONS_START_VAL    -1.4214858382913982E+02
     TEMPERATURE     3.0000000000000000E+02
     TEMP_TOL     1.0000000000000001E+02
     COMVEL_TOL     1.9999999999999999E-07
     ANGVEL_ZERO  T
     &THERMOSTAT
       &NOSE
         LENGTH  3
         YOSHIDA  3
         TIMECON     9.9999999999999986E+01
         MTS  2
         &COORD
               1.7405666597939682E+01    1.4512383718212962E+02    5.8842641998869271E+02
         &END COORD
         &VELOCITY
               2.0937208926254399E-05    7.3334159261064893E-05   -2.6845511690328500E-05
         &END VELOCITY
         &MASS
               2.8740019641650124E+06    1.6237299232570693E+04    1.6237299232570693E+04
         &END MASS
         &FORCE
               5.9494553012823901E-09    1.9080895168922884E-08   -5.3132114935577840E-08
         &END FORCE
       &END NOSE
     &END THERMOSTAT
     &AVERAGES  T
       &RESTART_AVERAGES
         ITIMES_START  1
         AVECPU     2.3106380853344444E-01
         AVEHUGONIOT     0.0000000000000000E+00
         AVETEMP_BARO     0.0000000000000000E+00
         AVEPOT    -2.0965424026192082E+02
         AVEKIN     8.7953064867791475E-02
         AVETEMP     3.1382314226680097E+02
         AVEKIN_QM     0.0000000000000000E+00
         AVETEMP_QM     0.0000000000000000E+00
         AVEVOL     2.1215954129084956E+04
         AVECELL_A     2.3243631434492080E+01
         AVECELL_B     2.4150699978278571E+01
         AVECELL_C     3.7794522657712555E+01
         AVEALPHA     9.0000000000000000E+01
         AVEBETA     9.0000000000000000E+01
         AVEGAMMA     9.0000000000000000E+01
         AVE_ECONS    -2.9361881898952706E+05
         AVE_PRESS     0.0000000000000000E+00
         AVE_PXX     0.0000000000000000E+00
       &END RESTART_AVERAGES
     &END AVERAGES
     &PRINT
       FORCE_LAST  T
       &ENERGY  SILENT
         &EACH
           MD  10
         &END EACH
       &END ENERGY
       &PROGRAM_RUN_INFO  SILENT
         &EACH
           MD  100
         &END EACH
       &END PROGRAM_RUN_INFO
     &END PRINT
   &END MD
   &FREE_ENERGY
     &METADYN
       NT_HILLS  100
       MIN_DISP    -1.0000000000000000E+00
       OLD_HILL_NUMBER  200
       OLD_HILL_STEP  20000
       WW     3.0000000000000001E-03
       DO_HILLS  T
       STEP_START_VAL  20000
       NHILLS_START_VAL  200
       &METAVAR
         SCALE     2.0000000000000001E-01
         COLVAR  1
       &END METAVAR
       &METAVAR
         SCALE     2.9999999999999999E-01
         COLVAR  2
       &END METAVAR
       &METAVAR
         SCALE     2.0000000000000001E-01
         COLVAR  3
       &END METAVAR
       &PRINT
         &COLVAR  SILENT
           COMMON_ITERATION_LEVELS  3
           &EACH
             MD  1
           &END EACH
         &END COLVAR
         &HILLS  SILENT
           COMMON_ITERATION_LEVELS  3
           &EACH
             MD  1
           &END EACH
         &END HILLS
       &END PRINT
       &SPAWNED_HILLS_POS
             2.3731749722947726E-01    2.9274024236454954E+00    1.3169373982248986E-01
             1.8375471843011773E-01    2.9347518244000148E+00    1.0732526969196314E-01
             1.8338134161561495E-01    2.9360269459292105E+00    9.4443880806301936E-02
             1.8817493226544951E-01    2.9344044332180679E+00    1.0282186445295383E-01
             1.7685749264299455E-01    2.9304969752880847E+00    9.6500971989805270E-02
             1.9552952416476643E-01    2.9313790984988533E+00    1.0402361263074603E-01
             1.8443856042393439E-01    2.9342782232870119E+00    9.6998703004510869E-02
             1.9192749640346279E-01    2.9332088678147676E+00    1.0504693769774816E-01
             1.8744274699771246E-01    2.9309264625463891E+00    1.1337105926739705E-01
             1.8588587950517266E-01    2.9301144573558742E+00    1.0452282979525511E-01
             1.8427323606924068E-01    2.9317597609887236E+00    1.0568534320609177E-01
             1.8965986769929699E-01    2.9310847380964002E+00    1.0464156329190970E-01
             1.8976601255219189E-01    2.9327162090925900E+00    9.1964117120367839E-02
             1.7641048134829568E-01    2.9352368094862427E+00    1.0240927763452543E-01
             1.8144867803598874E-01    2.9295553245447103E+00    1.1022985706606181E-01
             1.7774033439288894E-01    2.9299376634979115E+00    1.0639117507146799E-01
             1.8299767733276895E-01    2.9314407333124075E+00    1.0161301636295224E-01
             1.9620448410468541E-01    2.9319697824542259E+00    9.1915531874977932E-02
             1.8545364414227572E-01    2.9338168694823659E+00    9.6307515763243465E-02
             1.8184328679139442E-01    2.9333547065625241E+00    1.0137730761129203E-01
             1.8016326806907224E-01    2.9282027404977442E+00    1.1154269503237078E-01
             1.7734410671104717E-01    2.9289312849748192E+00    1.0430598913429480E-01
             1.9131774717280448E-01    2.9300244464573915E+00    1.0042155987671589E-01
             1.9197331314330485E-01    2.9319048771098735E+00    9.6806456228394538E-02
             1.8614133685171669E-01    2.9333713615666426E+00    8.8323803039568577E-02
             1.7810155434683908E-01    2.9335099498754258E+00    1.0483040809850915E-01
             1.7875067100716771E-01    2.9310557702114250E+00    1.0718322246368710E-01
             1.8097630383208885E-01    2.9280450460589504E+00    1.0674786775320030E-01
             1.8817311816874965E-01    2.9293865822527438E+00    9.8689296663518056E-02
             1.9378358100322182E-01    2.9317956880453826E+00    9.6589371829033155E-02
             1.9054846593297159E-01    2.9337606300443881E+00    1.0182698013098299E-01
             1.8652602416081604E-01    2.9308355798390142E+00    1.0292026486849078E-01
             1.7988251530868288E-01    2.9301304153483567E+00    1.1049053196223478E-01
             1.8387280596394845E-01    2.9292223633811374E+00    1.0391920930010229E-01
             1.9290496647210637E-01    2.9294214634047595E+00    9.5775965153197945E-02
             1.9311339673680777E-01    2.9324903200641512E+00    9.8304826458806935E-02
             1.8186187280041877E-01    2.9327083993582597E+00    9.2695199472139195E-02
             1.8063348392096434E-01    2.9313113807665863E+00    1.1014012825517544E-01
             1.7768178176391863E-01    2.9309402035947105E+00    1.1311752210080871E-01
             1.8829472183965515E-01    2.9300054790541292E+00    9.6091793845129239E-02
             1.8942977428086963E-01    2.9313210297665790E+00    9.3948461758214044E-02
             1.8469583592608557E-01    2.9353184910177657E+00    9.7351994950557547E-02
             1.7879633623783991E-01    2.9322984493139481E+00    1.1055247840739267E-01
             1.8045156759015130E-01    2.9287234518100158E+00    1.0477810532781182E-01
             1.8649309345319809E-01    2.9283384781171793E+00    9.2548919869935464E-02
             1.9285515578689078E-01    2.9329552011263349E+00    9.5993201975270157E-02
             1.8673717479416799E-01    2.9348018008943599E+00    9.8568930823376838E-02
             1.8202548765490945E-01    2.9305326470863853E+00    1.1100746591298188E-01
             1.7816178733113633E-01    2.9282077240236211E+00    1.0551568378715399E-01
             1.8377263271244754E-01    2.9282760703323363E+00    1.0078034433764646E-01
             1.9398729932436223E-01    2.9313682768268836E+00    9.6915307727004116E-02
             1.8664421938843140E-01    2.9331880015761276E+00    9.5588728882846016E-02
             1.8514634839109956E-01    2.9331878793290800E+00    1.0808931563438021E-01
             1.7836479366479363E-01    2.9280894536923365E+00    1.0453573053118465E-01
             1.8168492327527933E-01    2.9320145735061285E+00    9.4032259637897922E-02
             1.8908978083852082E-01    2.9329914501401682E+00    1.0674316992129121E-01
             1.8261056168581749E-01    2.9303160296088850E+00    9.9196912476425300E-02
             1.9061858761142128E-01    2.9334479672805824E+00    8.9142387682789009E-02
             1.8446098677667333E-01    2.9343792493991492E+00    1.1112198424128027E-01
             1.8110338317152247E-01    2.9331574855267686E+00    1.0871999662718827E-01
             1.8068121520575980E-01    2.9313115091847948E+00    1.0444990916436311E-01
             1.8559206471225570E-01    2.9281845282024292E+00    1.0361302342016709E-01
             1.9475494593914403E-01    2.9355261607677554E+00    9.6952308666254483E-02
             1.8790942752678103E-01    2.9350529569953041E+00    1.0007984294079331E-01
             1.8086340096662679E-01    2.9303953640481755E+00    1.0642817145832727E-01
             1.7573022004028144E-01    2.9300288300887853E+00    1.1010121479430518E-01
             1.8531191585282170E-01    2.9310472946763486E+00    1.0001357872366497E-01
             1.9177152534689829E-01    2.9325283558036777E+00    9.5449246295092494E-02
             1.8856508908242889E-01    2.9349028702982105E+00    9.9694246370112566E-02
             1.8409614872505803E-01    2.9322141062936735E+00    1.0461528281466410E-01
             1.7934870027100791E-01    2.9287086704162344E+00    1.0866794867982549E-01
             1.8475697929675178E-01    2.9290368891900220E+00    1.0376393458928618E-01
             1.9357180862684131E-01    2.9327559870250184E+00    9.4727270267520661E-02
             1.9029804490406438E-01    2.9343918229524757E+00    9.7128328365419417E-02
             1.8349058751018743E-01    2.9343483242203332E+00    9.8020508213762028E-02
             1.7652493198453179E-01    2.9298298277624384E+00    1.0759599344070461E-01
             1.7918604398999394E-01    2.9292371173086256E+00    1.1199201695833573E-01
             1.9363032524530935E-01    2.9303467590182906E+00    9.6388272075540446E-02
             1.9200106837169054E-01    2.9316369953023700E+00    9.5745251458419667E-02
             1.8762307126625727E-01    2.9309611871020924E+00    9.9553770395734167E-02
             1.7845303974394400E-01    2.9286138205417567E+00    1.1073272332632997E-01
             1.7938410224319618E-01    2.9280977133482127E+00    1.0965458857196210E-01
             1.9197273279871119E-01    2.9302418281973619E+00    9.7815172419420490E-02
             1.9205197852210854E-01    2.9337405400562013E+00    9.2251445201217114E-02
             1.8440346097132343E-01    2.9373639556731135E+00    9.7324729444031380E-02
             1.7917805599342906E-01    2.9308295662165635E+00    1.0582760627226112E-01
             1.7890508652854320E-01    2.9287450082913669E+00    1.1164615471749986E-01
             1.8980905943657705E-01    2.9300039120944481E+00    9.8275242121292669E-02
             1.9168351760597524E-01    2.9330091960522573E+00    8.8995722338751498E-02
             1.8933150726561371E-01    2.9330666418524847E+00    9.6780042764504498E-02
             1.8229448440642315E-01    2.9308573481851834E+00    1.0885411562354186E-01
             1.7830878810604162E-01    2.9284965617470009E+00    1.1480969834418840E-01
             1.8820820427828866E-01    2.9290679112814000E+00    1.0411342096046149E-01
             1.8966766223449827E-01    2.9307191595836959E+00    9.0840503119616764E-02
             1.8809426300459589E-01    2.9333941744850831E+00    9.8225583546720438E-02
             1.8377081409198454E-01    2.9344305865654050E+00    1.0502062869734569E-01
             1.7578767839447676E-01    2.9314945735498452E+00    1.1086699019915248E-01
             1.8165029429692198E-01    2.9298455138424941E+00    1.0984277973130749E-01
             1.9294204498700268E-01    2.9300040432232684E+00    9.3724126175044373E-02
             1.9478196820114249E-01    2.9324271985596151E+00    9.4802716259996644E-02
             1.8636323946948780E-01    2.9328735702192543E+00    9.4572332352705207E-02
             1.7883370716583671E-01    2.9306681208134338E+00    1.1770705557850171E-01
             1.8192811087096028E-01    2.9289654109420735E+00    1.1048044192480973E-01
             1.8791288587746685E-01    2.9288999095579666E+00    9.3731611335677131E-02
             1.9418250844581747E-01    2.9308273036725763E+00    9.9261173830628519E-02
             1.8317626297422876E-01    2.9359306236760689E+00    9.5990147867163172E-02
             1.8062306095932248E-01    2.9318224854757693E+00    1.1121449047823410E-01
             1.7741985042993891E-01    2.9286440529122539E+00    1.1304217563975391E-01
             1.9053411476742521E-01    2.9290293449545279E+00    9.6442901953683755E-02
             1.9551165082206096E-01    2.9327016628260640E+00    9.2657640328406829E-02
             1.8525829872396471E-01    2.9354534791773434E+00    9.0144045843864692E-02
             1.7874874261003332E-01    2.9302343307133447E+00    1.1156924324497408E-01
             1.8019668114395562E-01    2.9290084455217755E+00    1.1144898960575803E-01
             1.8562323578022133E-01    2.9292550096184922E+00    9.4439215200719087E-02
             1.9503036070959179E-01    2.9312201804687121E+00    9.7047221579676490E-02
             1.8427006518039829E-01    2.9329382806564475E+00    1.0082452277518168E-01
             1.8430552646744239E-01    2.9315675771717498E+00    1.1060831805278334E-01
             1.7975439041269736E-01    2.9291265031603402E+00    1.0533141583781275E-01
             1.8504376344024479E-01    2.9295669071810186E+00    1.0101827073156784E-01
             1.9417105212545122E-01    2.9326439007165130E+00    9.9239353677173181E-02
             1.8656279384700203E-01    2.9343746580598671E+00    8.8312225783099871E-02
             1.8550632778710391E-01    2.9345589294383676E+00    9.9598770014761293E-02
             1.7797417918631608E-01    2.9301961850436973E+00    1.0860544647161795E-01
             1.7882542735526041E-01    2.9299357126027248E+00    1.0879995815994084E-01
             1.8792048616084672E-01    2.9294143534087609E+00    1.0178142390996145E-01
             1.9188981160720125E-01    2.9307413560659610E+00    9.3375117240716912E-02
             1.8735732885433989E-01    2.9339659850938142E+00    9.7185458705118508E-02
             1.8161620108314572E-01    2.9300519068502049E+00    1.0419202325238348E-01
             1.7954467558758139E-01    2.9283684179689038E+00    1.1391150307267493E-01
             1.8834604505975999E-01    2.9304620223432805E+00    1.0171751500322462E-01
             1.9188481963406517E-01    2.9335743309856559E+00    8.9876276058673363E-02
             1.8688783651227064E-01    2.9338104994941276E+00    9.9226129484633940E-02
             1.8177366207242679E-01    2.9340830151313231E+00    1.0187327601756789E-01
             1.7863317548874663E-01    2.9300715884715935E+00    1.0811265755428931E-01
             1.8229515674371935E-01    2.9284673774200551E+00    1.0465817204039170E-01
             1.9302180821136883E-01    2.9300379573477344E+00    9.4629522612812614E-02
             1.9338222958570989E-01    2.9330652572683986E+00    1.0150711224367449E-01
             1.8109900782071775E-01    2.9321585842167912E+00    9.5098415476610160E-02
             1.8339503383924755E-01    2.9299879172892385E+00    1.1572218216926551E-01
             1.8098139120414702E-01    2.9298626031995645E+00    1.0447077103144278E-01
             1.9146404155522695E-01    2.9308351745907353E+00    9.6933306133674083E-02
             1.9162648751034717E-01    2.9325325567434155E+00    9.7013043155247072E-02
             1.8093981981261986E-01    2.9355215707111491E+00    9.7941694885636393E-02
             1.7945112905653932E-01    2.9323443817829080E+00    1.1313640293519597E-01
             1.7740115255074185E-01    2.9286631358281667E+00    1.0658476090204157E-01
             1.8928073383845884E-01    2.9291192388360430E+00    1.0443138517633921E-01
             1.9373001397972023E-01    2.9308195153519678E+00    9.0709538173402410E-02
             1.8625485329409822E-01    2.9326368026295175E+00    9.7954703872276880E-02
             1.8635036065129190E-01    2.9308170001419556E+00    1.0890726881912667E-01
             1.7972923934630336E-01    2.9283492324513554E+00    1.1010502539375334E-01
             1.8408987129088719E-01    2.9281015135005366E+00    1.0534275793634028E-01
             1.9153662493003004E-01    2.9318592878399845E+00    8.8300707002163498E-02
             1.8770862703972360E-01    2.9331033251160390E+00    9.9556702178036319E-02
             1.8355167404384221E-01    2.9352067862205220E+00    1.0104179939114687E-01
             1.7974372223147528E-01    2.9320398734355400E+00    1.1345565541409069E-01
             1.7720443194167657E-01    2.9302456110775972E+00    1.1229267912751595E-01
             1.8866492475603197E-01    2.9312961478248178E+00    8.6810375109590637E-02
             1.9145194779532959E-01    2.9323386595443428E+00    9.9920051000349661E-02
             1.8587616375125027E-01    2.9314868080950869E+00    1.0118221687250356E-01
             1.8121493247332604E-01    2.9299697065397661E+00    1.0465552267992462E-01
             1.7947975012278156E-01    2.9286847464278818E+00    1.0255407744407867E-01
             1.8930524581281694E-01    2.9268977629011981E+00    9.5124909577385022E-02
             1.9753802892048855E-01    2.9329142088494313E+00    9.7476158098861565E-02
             1.8734314559686388E-01    2.9330194169280701E+00    9.5605885286883144E-02
             1.8320346269992227E-01    2.9333758896725328E+00    9.9624151462507179E-02
             1.7833029963950048E-01    2.9302334506043355E+00    1.1185178860655480E-01
             1.8108424350141955E-01    2.9303887193219884E+00    1.0515265685940874E-01
             1.9211231722145020E-01    2.9311551781415259E+00    9.4858079932289369E-02
             1.9075006751225368E-01    2.9333234134455859E+00    9.0592832252396061E-02
             1.8203723885161874E-01    2.9339808748838583E+00    9.9369105413985956E-02
             1.8096644695946934E-01    2.9293443695429664E+00    1.0802293852977765E-01
             1.8026394657963984E-01    2.9291587282975327E+00    1.0344286972373057E-01
             1.9119968693706171E-01    2.9331198800115832E+00    9.7624804787581579E-02
             1.8804565801301054E-01    2.9282006999893153E+00    9.6196620147231265E-02
             1.8876908823523600E-01    2.9309120693579205E+00    9.6992903724894566E-02
             1.8142201878527187E-01    2.9346161284469834E+00    1.1097170491723371E-01
             1.7571703390632892E-01    2.9303374896304017E+00    1.1421161326196246E-01
             1.8172522240112793E-01    2.9275374218814836E+00    1.0808857881066310E-01
             1.9099245729095629E-01    2.9330460532430549E+00    9.0511278344350868E-02
             1.9074463335972736E-01    2.9329594787296678E+00    9.5437217572358221E-02
             1.8362300011484389E-01    2.9347572572629432E+00    9.7058300083355614E-02
             1.7823335685656611E-01    2.9318631423659660E+00    1.1417809928241894E-01
             1.8440592146716389E-01    2.9291560641824907E+00    1.1197697357141274E-01
             1.9204637995140517E-01    2.9289489306951038E+00    9.6370868745323454E-02
             1.9087470635072712E-01    2.9312849950353548E+00    9.4099090242957539E-02
             1.8462818305777787E-01    2.9344670341731964E+00    9.5486726574270528E-02
             1.8084526121823091E-01    2.9314667926386999E+00    1.1630156983004732E-01
             1.8150097388684783E-01    2.9291251995406875E+00    1.1188530232496087E-01
             1.8938328520621198E-01    2.9304701907202837E+00    9.6982415684289891E-02
             1.9372811380821989E-01    2.9335956809230654E+00    9.3110967717333334E-02
             1.8307567216446410E-01    2.9366898066556817E+00    9.0857604495239733E-02
             1.7885990907470198E-01    2.9315429762126377E+00    1.1504883921629748E-01
             1.8246536967388086E-01    2.9289381512396884E+00    1.0889171853855929E-01
             1.8559040062232712E-01    2.9287114714659643E+00    9.6552290350141817E-02
             1.9473905202933919E-01    2.9298551535328290E+00    9.8923124988236952E-02
             1.8575924007274802E-01    2.9323736998609027E+00    9.3385196461624007E-02
             1.7922101671577262E-01    2.9344963769895269E+00    1.0342742811352167E-01
             1.8572095701131541E-01    2.9289761380415484E+00    1.1062159557907135E-01
             1.8371632860922740E-01    2.9279944420853572E+00    9.9199584645508126E-02
             1.8763806182375078E-01    2.9318818372859257E+00    9.3430136419239196E-02
       &END SPAWNED_HILLS_POS
       &SPAWNED_HILLS_SCALE
             2.0000000000000001E-01    2.9999999999999999E-01    2.0000000000000001E-01
             2.0000000000000001E-01    2.9999999999999999E-01    2.0000000000000001E-01
             2.0000000000000001E-01    2.9999999999999999E-01    2.0000000000000001E-01
             2.0000000000000001E-01    2.9999999999999999E-01    2.0000000000000001E-01
             2.0000000000000001E-01    2.9999999999999999E-01    2.0000000000000001E-01
             2.0000000000000001E-01    2.9999999999999999E-01    2.0000000000000001E-01
             2.0000000000000001E-01    2.9999999999999999E-01    2.0000000000000001E-01
             2.0000000000000001E-01    2.9999999999999999E-01    2.0000000000000001E-01
             2.0000000000000001E-01    2.9999999999999999E-01    2.0000000000000001E-01
             2.0000000000000001E-01    2.9999999999999999E-01    2.0000000000000001E-01
             2.0000000000000001E-01    2.9999999999999999E-01    2.0000000000000001E-01
             2.0000000000000001E-01    2.9999999999999999E-01    2.0000000000000001E-01
             2.0000000000000001E-01    2.9999999999999999E-01    2.0000000000000001E-01
             2.0000000000000001E-01    2.9999999999999999E-01    2.0000000000000001E-01
             2.0000000000000001E-01    2.9999999999999999E-01    2.0000000000000001E-01
             2.0000000000000001E-01    2.9999999999999999E-01    2.0000000000000001E-01
             2.0000000000000001E-01    2.9999999999999999E-01    2.0000000000000001E-01
             2.0000000000000001E-01    2.9999999999999999E-01    2.0000000000000001E-01
             2.0000000000000001E-01    2.9999999999999999E-01    2.0000000000000001E-01
             2.0000000000000001E-01    2.9999999999999999E-01    2.0000000000000001E-01
             2.0000000000000001E-01    2.9999999999999999E-01    2.0000000000000001E-01
             2.0000000000000001E-01    2.9999999999999999E-01    2.0000000000000001E-01
             2.0000000000000001E-01    2.9999999999999999E-01    2.0000000000000001E-01
             2.0000000000000001E-01    2.9999999999999999E-01    2.0000000000000001E-01
             2.0000000000000001E-01    2.9999999999999999E-01    2.0000000000000001E-01
             2.0000000000000001E-01    2.9999999999999999E-01    2.0000000000000001E-01
             2.0000000000000001E-01    2.9999999999999999E-01    2.0000000000000001E-01
             2.0000000000000001E-01    2.9999999999999999E-01    2.0000000000000001E-01
             2.0000000000000001E-01    2.9999999999999999E-01    2.0000000000000001E-01
             2.0000000000000001E-01    2.9999999999999999E-01    2.0000000000000001E-01
             2.0000000000000001E-01    2.9999999999999999E-01    2.0000000000000001E-01
             2.0000000000000001E-01    2.9999999999999999E-01    2.0000000000000001E-01
             2.0000000000000001E-01    2.9999999999999999E-01    2.0000000000000001E-01
             2.0000000000000001E-01    2.9999999999999999E-01    2.0000000000000001E-01
             2.0000000000000001E-01    2.9999999999999999E-01    2.0000000000000001E-01
             2.0000000000000001E-01    2.9999999999999999E-01    2.0000000000000001E-01
             2.0000000000000001E-01    2.9999999999999999E-01    2.0000000000000001E-01
             2.0000000000000001E-01    2.9999999999999999E-01    2.0000000000000001E-01
             2.0000000000000001E-01    2.9999999999999999E-01    2.0000000000000001E-01
             2.0000000000000001E-01    2.9999999999999999E-01    2.0000000000000001E-01
             2.0000000000000001E-01    2.9999999999999999E-01    2.0000000000000001E-01
             2.0000000000000001E-01    2.9999999999999999E-01    2.0000000000000001E-01
             2.0000000000000001E-01    2.9999999999999999E-01    2.0000000000000001E-01
             2.0000000000000001E-01    2.9999999999999999E-01    2.0000000000000001E-01
             2.0000000000000001E-01    2.9999999999999999E-01    2.0000000000000001E-01
             2.0000000000000001E-01    2.9999999999999999E-01    2.0000000000000001E-01
             2.0000000000000001E-01    2.9999999999999999E-01    2.0000000000000001E-01
             2.0000000000000001E-01    2.9999999999999999E-01    2.0000000000000001E-01
             2.0000000000000001E-01    2.9999999999999999E-01    2.0000000000000001E-01
             2.0000000000000001E-01    2.9999999999999999E-01    2.0000000000000001E-01
             2.0000000000000001E-01    2.9999999999999999E-01    2.0000000000000001E-01
             2.0000000000000001E-01    2.9999999999999999E-01    2.0000000000000001E-01
             2.0000000000000001E-01    2.9999999999999999E-01    2.0000000000000001E-01
             2.0000000000000001E-01    2.9999999999999999E-01    2.0000000000000001E-01
             2.0000000000000001E-01    2.9999999999999999E-01    2.0000000000000001E-01
             2.0000000000000001E-01    2.9999999999999999E-01    2.0000000000000001E-01
             2.0000000000000001E-01    2.9999999999999999E-01    2.0000000000000001E-01
             2.0000000000000001E-01    2.9999999999999999E-01    2.0000000000000001E-01
             2.0000000000000001E-01    2.9999999999999999E-01    2.0000000000000001E-01
             2.0000000000000001E-01    2.9999999999999999E-01    2.0000000000000001E-01
             2.0000000000000001E-01    2.9999999999999999E-01    2.0000000000000001E-01
             2.0000000000000001E-01    2.9999999999999999E-01    2.0000000000000001E-01
             2.0000000000000001E-01    2.9999999999999999E-01    2.0000000000000001E-01
             2.0000000000000001E-01    2.9999999999999999E-01    2.0000000000000001E-01
             2.0000000000000001E-01    2.9999999999999999E-01    2.0000000000000001E-01
             2.0000000000000001E-01    2.9999999999999999E-01    2.0000000000000001E-01
             2.0000000000000001E-01    2.9999999999999999E-01    2.0000000000000001E-01
             2.0000000000000001E-01    2.9999999999999999E-01    2.0000000000000001E-01
             2.0000000000000001E-01    2.9999999999999999E-01    2.0000000000000001E-01
             2.0000000000000001E-01    2.9999999999999999E-01    2.0000000000000001E-01
             2.0000000000000001E-01    2.9999999999999999E-01    2.0000000000000001E-01
             2.0000000000000001E-01    2.9999999999999999E-01    2.0000000000000001E-01
             2.0000000000000001E-01    2.9999999999999999E-01    2.0000000000000001E-01
             2.0000000000000001E-01    2.9999999999999999E-01    2.0000000000000001E-01
             2.0000000000000001E-01    2.9999999999999999E-01    2.0000000000000001E-01
             2.0000000000000001E-01    2.9999999999999999E-01    2.0000000000000001E-01
             2.0000000000000001E-01    2.9999999999999999E-01    2.0000000000000001E-01
             2.0000000000000001E-01    2.9999999999999999E-01    2.0000000000000001E-01
             2.0000000000000001E-01    2.9999999999999999E-01    2.0000000000000001E-01
             2.0000000000000001E-01    2.9999999999999999E-01    2.0000000000000001E-01
             2.0000000000000001E-01    2.9999999999999999E-01    2.0000000000000001E-01
             2.0000000000000001E-01    2.9999999999999999E-01    2.0000000000000001E-01
             2.0000000000000001E-01    2.9999999999999999E-01    2.0000000000000001E-01
             2.0000000000000001E-01    2.9999999999999999E-01    2.0000000000000001E-01
             2.0000000000000001E-01    2.9999999999999999E-01    2.0000000000000001E-01
             2.0000000000000001E-01    2.9999999999999999E-01    2.0000000000000001E-01
             2.0000000000000001E-01    2.9999999999999999E-01    2.0000000000000001E-01
             2.0000000000000001E-01    2.9999999999999999E-01    2.0000000000000001E-01
             2.0000000000000001E-01    2.9999999999999999E-01    2.0000000000000001E-01
             2.0000000000000001E-01    2.9999999999999999E-01    2.0000000000000001E-01
             2.0000000000000001E-01    2.9999999999999999E-01    2.0000000000000001E-01
             2.0000000000000001E-01    2.9999999999999999E-01    2.0000000000000001E-01
             2.0000000000000001E-01    2.9999999999999999E-01    2.0000000000000001E-01
             2.0000000000000001E-01    2.9999999999999999E-01    2.0000000000000001E-01
             2.0000000000000001E-01    2.9999999999999999E-01    2.0000000000000001E-01
             2.0000000000000001E-01    2.9999999999999999E-01    2.0000000000000001E-01
             2.0000000000000001E-01    2.9999999999999999E-01    2.0000000000000001E-01
             2.0000000000000001E-01    2.9999999999999999E-01    2.0000000000000001E-01