 # Version information for this restart file 
 # current date 2021-06-01 00:18:32.588
 # current working dir /scratch/snx3000/ramador/exercise_14
 # Program compiled at                              Wed Mar 17 13:03:11 CET 2021
 # Program compiled on                                                  daint101
 # Program compiled for                                    CP2K-7.1-CrayGNU-cuda
 # Source code revision number                                       git:e635599
 &GLOBAL
   PRINT_LEVEL  LOW
   PROJECT_NAME gr2hno3_mtd_3cv_p1
   RUN_TYPE  MD
 &END GLOBAL
 &MOTION
   &MD
     ENSEMBLE  NVT
     STEPS  20000
     TIMESTEP     9.9999999999999989E-01
     STEP_START_VAL  8000
     TIME_START_VAL     7.9999999999991787E+03
     ECONS_START_VAL    -1.4214858382913982E+02
     TEMPERATURE     3.0000000000000000E+02
     TEMP_TOL     1.0000000000000001E+02
     COMVEL_TOL     1.9999999999999999E-07
     ANGVEL_ZERO  T
     &THERMOSTAT
       &NOSE
         LENGTH  3
         YOSHIDA  3
         TIMECON     9.9999999999999986E+01
         MTS  2
         &COORD
               8.9239948625613597E+00    4.7744063179687828E+01    5.8782254745180353E+02
         &END COORD
         &VELOCITY
               1.2150835576733072E-05    6.6533395096051579E-04    8.3685090124921573E-05
         &END VELOCITY
         &MASS
               2.8740019641650124E+06    1.6237299232570693E+04    1.6237299232570693E+04
         &END MASS
         &FORCE
               8.0604209259937198E-09   -3.2377237327439094E-08    3.8415925245062498E-07
         &END FORCE
       &END NOSE
     &END THERMOSTAT
     &AVERAGES  T
       &RESTART_AVERAGES
         ITIMES_START  1
         AVECPU     2.0538711893538134E-01
         AVEHUGONIOT     0.0000000000000000E+00
         AVETEMP_BARO     0.0000000000000000E+00
         AVEPOT    -2.0967868324651735E+02
         AVEKIN     8.7364635540523053E-02
         AVETEMP     3.1172358222573729E+02
         AVEKIN_QM     0.0000000000000000E+00
         AVETEMP_QM     0.0000000000000000E+00
         AVEVOL     2.1215954129084952E+04
         AVECELL_A     2.3243631434493832E+01
         AVECELL_B     2.4150699978277693E+01
         AVECELL_C     3.7794522657713266E+01
         AVEALPHA     9.0000000000000000E+01
         AVEBETA     9.0000000000000000E+01
         AVEGAMMA     9.0000000000000000E+01
         AVE_ECONS    -2.9731001123714366E+05
         AVE_PRESS     0.0000000000000000E+00
         AVE_PXX     0.0000000000000000E+00
       &END RESTART_AVERAGES
     &END AVERAGES
     &PRINT
       FORCE_LAST  T
       &ENERGY  SILENT
         &EACH
           MD  10
         &END EACH
       &END ENERGY
       &PROGRAM_RUN_INFO  SILENT
         &EACH
           MD  100
         &END EACH
       &END PROGRAM_RUN_INFO
     &END PRINT
   &END MD
   &FREE_ENERGY
     &METADYN
       NT_HILLS  100
       MIN_DISP    -1.0000000000000000E+00
       OLD_HILL_NUMBER  80
       OLD_HILL_STEP  8000
       WW     3.0000000000000001E-03
       DO_HILLS  T
       STEP_START_VAL  8000
       NHILLS_START_VAL  80
       &METAVAR
         SCALE     2.0000000000000001E-01
         COLVAR  1
       &END METAVAR
       &METAVAR
         SCALE     2.9999999999999999E-01
         COLVAR  2
       &END METAVAR
       &METAVAR
         SCALE     2.0000000000000001E-01
         COLVAR  3
       &END METAVAR
       &PRINT
         &COLVAR  SILENT
           COMMON_ITERATION_LEVELS  3
           &EACH
             MD  1
           &END EACH
         &END COLVAR
         &HILLS  SILENT
           COMMON_ITERATION_LEVELS  3
           &EACH
             MD  1
           &END EACH
         &END HILLS
       &END PRINT
       &SPAWNED_HILLS_POS
             2.3731749722947726E-01    2.9274024236454954E+00    1.3169373982248986E-01
             1.8375471843011773E-01    2.9347518244000148E+00    1.0732526969196314E-01
             1.8338134161561495E-01    2.9360269459292105E+00    9.4443880806301936E-02
             1.8817493226544951E-01    2.9344044332180679E+00    1.0282186445295383E-01
             1.7685749264299455E-01    2.9304969752880847E+00    9.6500971989805270E-02
             1.9552952416476643E-01    2.9313790984988533E+00    1.0402361263074603E-01
             1.8443856042393439E-01    2.9342782232870119E+00    9.6998703004510869E-02
             1.9192749640346279E-01    2.9332088678147676E+00    1.0504693769774816E-01
             1.8744274699771246E-01    2.9309264625463891E+00    1.1337105926739705E-01
             1.8588587950517266E-01    2.9301144573558742E+00    1.0452282979525511E-01
             1.8427323606924068E-01    2.9317597609887236E+00    1.0568534320609177E-01
             1.8965986769929699E-01    2.9310847380964002E+00    1.0464156329190970E-01
             1.8976601255219189E-01    2.9327162090925900E+00    9.1964117120367839E-02
             1.7641048134829568E-01    2.9352368094862427E+00    1.0240927763452543E-01
             1.8144867803598874E-01    2.9295553245447103E+00    1.1022985706606181E-01
             1.7774033439288894E-01    2.9299376634979115E+00    1.0639117507146799E-01
             1.8299767733276895E-01    2.9314407333124075E+00    1.0161301636295224E-01
             1.9620448410468541E-01    2.9319697824542259E+00    9.1915531874977932E-02
             1.8545364414227572E-01    2.9338168694823659E+00    9.6307515763243465E-02
             1.8184328679139442E-01    2.9333547065625241E+00    1.0137730761129203E-01
             1.8016326806907224E-01    2.9282027404977442E+00    1.1154269503237078E-01
             1.7734410671104717E-01    2.9289312849748192E+00    1.0430598913429480E-01
             1.9131774717280448E-01    2.9300244464573915E+00    1.0042155987671589E-01
             1.9197331314330485E-01    2.9319048771098735E+00    9.6806456228394538E-02
             1.8614133685171669E-01    2.9333713615666426E+00    8.8323803039568577E-02
             1.7810155434683908E-01    2.9335099498754258E+00    1.0483040809850915E-01
             1.7875067100716771E-01    2.9310557702114250E+00    1.0718322246368710E-01
             1.8097630383208885E-01    2.9280450460589504E+00    1.0674786775320030E-01
             1.8817311816874965E-01    2.9293865822527438E+00    9.8689296663518056E-02
             1.9378358100322182E-01    2.9317956880453826E+00    9.6589371829033155E-02
             1.9054846593297159E-01    2.9337606300443881E+00    1.0182698013098299E-01
             1.8652602416081604E-01    2.9308355798390142E+00    1.0292026486849078E-01
             1.7988251530868288E-01    2.9301304153483567E+00    1.1049053196223478E-01
             1.8387280596394845E-01    2.9292223633811374E+00    1.0391920930010229E-01
             1.9290496647210637E-01    2.9294214634047595E+00    9.5775965153197945E-02
             1.9311339673680777E-01    2.9324903200641512E+00    9.8304826458806935E-02
             1.8186187280041877E-01    2.9327083993582597E+00    9.2695199472139195E-02
             1.8063348392096434E-01    2.9313113807665863E+00    1.1014012825517544E-01
             1.7768178176391863E-01    2.9309402035947105E+00    1.1311752210080871E-01
             1.8829472183965515E-01    2.9300054790541292E+00    9.6091793845129239E-02
             1.8942977428086963E-01    2.9313210297665790E+00    9.3948461758214044E-02
             1.8469583592608557E-01    2.9353184910177657E+00    9.7351994950557547E-02
             1.7879633623783991E-01    2.9322984493139481E+00    1.1055247840739267E-01
             1.8045156759015130E-01    2.9287234518100158E+00    1.0477810532781182E-01
             1.8649309345319809E-01    2.9283384781171793E+00    9.2548919869935464E-02
             1.9285515578689078E-01    2.9329552011263349E+00    9.5993201975270157E-02
             1.8673717479416799E-01    2.9348018008943599E+00    9.8568930823376838E-02
             1.8202548765490945E-01    2.9305326470863853E+00    1.1100746591298188E-01
             1.7816178733113633E-01    2.9282077240236211E+00    1.0551568378715399E-01
             1.8377263271244754E-01    2.9282760703323363E+00    1.0078034433764646E-01
             1.9398729932436223E-01    2.9313682768268836E+00    9.6915307727004116E-02
             1.8664421938843140E-01    2.9331880015761276E+00    9.5588728882846016E-02
             1.8514634839109956E-01    2.9331878793290800E+00    1.0808931563438021E-01
             1.7836479366479363E-01    2.9280894536923365E+00    1.0453573053118465E-01
             1.8168492327527933E-01    2.9320145735061285E+00    9.4032259637897922E-02
             1.8908978083852082E-01    2.9329914501401682E+00    1.0674316992129121E-01
             1.8261056168581749E-01    2.9303160296088850E+00    9.9196912476425300E-02
             1.9061858761142128E-01    2.9334479672805824E+00    8.9142387682789009E-02
             1.8446098677667333E-01    2.9343792493991492E+00    1.1112198424128027E-01
             1.8110338317152247E-01    2.9331574855267686E+00    1.0871999662718827E-01
             1.8068121520575980E-01    2.9313115091847948E+00    1.0444990916436311E-01
             1.8559206471225570E-01    2.9281845282024292E+00    1.0361302342016709E-01
             1.9475494593914403E-01    2.9355261607677554E+00    9.6952308666254483E-02
             1.8790942752678103E-01    2.9350529569953041E+00    1.0007984294079331E-01
             1.8086340096662679E-01    2.9303953640481755E+00    1.0642817145832727E-01
             1.7573022004028144E-01    2.9300288300887853E+00    1.1010121479430518E-01
             1.8531191585282170E-01    2.9310472946763486E+00    1.0001357872366497E-01
             1.9177152534689829E-01    2.9325283558036777E+00    9.5449246295092494E-02
             1.8856508908242889E-01    2.9349028702982105E+00    9.9694246370112566E-02
             1.8409614872505803E-01    2.9322141062936735E+00    1.0461528281466410E-01
             1.7934870027100791E-01    2.9287086704162344E+00    1.0866794867982549E-01
             1.8475697929675178E-01    2.9290368891900220E+00    1.0376393458928618E-01
             1.9357180862684131E-01    2.9327559870250184E+00    9.4727270267520661E-02
             1.9029804490406438E-01    2.9343918229524757E+00    9.7128328365419417E-02
             1.8349058751018743E-01    2.9343483242203332E+00    9.8020508213762028E-02
             1.7652493198453179E-01    2.9298298277624384E+00    1.0759599344070461E-01
             1.7918604398999394E-01    2.9292371173086256E+00    1.1199201695833573E-01
             1.9363032524530935E-01    2.9303467590182906E+00    9.6388272075540446E-02
             1.9200106837169054E-01    2.9316369953023700E+00    9.5745251458419667E-02
             1.8762307126625727E-01    2.9309611871020924E+00    9.9553770395734167E-02
       &END SPAWNED_HILLS_POS
       &SPAWNED_HILLS_SCALE
             2.0000000000000001E-01    2.9999999999999999E-01    2.0000000000000001E-01
             2.0000000000000001E-01    2.9999999999999999E-01    2.0000000000000001E-01
             2.0000000000000001E-01    2.9999999999999999E-01    2.0000000000000001E-01
             2.0000000000000001E-01    2.9999999999999999E-01    2.0000000000000001E-01
             2.0000000000000001E-01    2.9999999999999999E-01    2.0000000000000001E-01
             2.0000000000000001E-01    2.9999999999999999E-01    2.0000000000000001E-01
             2.0000000000000001E-01    2.9999999999999999E-01    2.0000000000000001E-01
             2.0000000000000001E-01    2.9999999999999999E-01    2.0000000000000001E-01
             2.0000000000000001E-01    2.9999999999999999E-01    2.0000000000000001E-01
             2.0000000000000001E-01    2.9999999999999999E-01    2.0000000000000001E-01
             2.0000000000000001E-01    2.9999999999999999E-01    2.0000000000000001E-01
             2.0000000000000001E-01    2.9999999999999999E-01    2.0000000000000001E-01
             2.0000000000000001E-01    2.9999999999999999E-01    2.0000000000000001E-01
             2.0000000000000001E-01    2.9999999999999999E-01    2.0000000000000001E-01
             2.0000000000000001E-01    2.9999999999999999E-01    2.0000000000000001E-01
             2.0000000000000001E-01    2.9999999999999999E-01    2.0000000000000001E-01
             2.0000000000000001E-01    2.9999999999999999E-01    2.0000000000000001E-01
             2.0000000000000001E-01    2.9999999999999999E-01    2.0000000000000001E-01
             2.0000000000000001E-01    2.9999999999999999E-01    2.0000000000000001E-01
             2.0000000000000001E-01    2.9999999999999999E-01    2.0000000000000001E-01
             2.0000000000000001E-01    2.9999999999999999E-01    2.0000000000000001E-01
             2.0000000000000001E-01    2.9999999999999999E-01    2.0000000000000001E-01
             2.0000000000000001E-01    2.9999999999999999E-01    2.0000000000000001E-01
             2.0000000000000001E-01    2.9999999999999999E-01    2.0000000000000001E-01
             2.0000000000000001E-01    2.9999999999999999E-01    2.0000000000000001E-01
             2.0000000000000001E-01    2.9999999999999999E-01    2.0000000000000001E-01
             2.0000000000000001E-01    2.9999999999999999E-01    2.0000000000000001E-01
             2.0000000000000001E-01    2.9999999999999999E-01    2.0000000000000001E-01
             2.0000000000000001E-01    2.9999999999999999E-01    2.0000000000000001E-01
             2.0000000000000001E-01    2.9999999999999999E-01    2.0000000000000001E-01
             2.0000000000000001E-01    2.9999999999999999E-01    2.0000000000000001E-01
             2.0000000000000001E-01    2.9999999999999999E-01    2.0000000000000001E-01
             2.0000000000000001E-01    2.9999999999999999E-01    2.0000000000000001E-01
             2.0000000000000001E-01    2.9999999999999999E-01    2.0000000000000001E-01
             2.0000000000000001E-01    2.9999999999999999E-01    2.0000000000000001E-01
             2.0000000000000001E-01    2.9999999999999999E-01    2.0000000000000001E-01
             2.0000000000000001E-01    2.9999999999999999E-01    2.0000000000000001E-01
             2.0000000000000001E-01    2.9999999999999999E-01    2.0000000000000001E-01
             2.0000000000000001E-01    2.9999999999999999E-01    2.0000000000000001E-01
             2.0000000000000001E-01    2.9999999999999999E-01    2.0000000000000001E-01
             2.0000000000000001E-01    2.9999999999999999E-01    2.0000000000000001E-01
             2.0000000000000001E-01    2.9999999999999999E-01    2.0000000000000001E-01
             2.0000000000000001E-01    2.9999999999999999E-01    2.0000000000000001E-01
             2.0000000000000001E-01    2.9999999999999999E-01    2.0000000000000001E-01
             2.0000000000000001E-01    2.9999999999999999E-01    2.0000000000000001E-01
             2.0000000000000001E-01    2.9999999999999999E-01    2.0000000000000001E-01
             2.0000000000000001E-01    2.9999999999999999E-01    2.0000000000000001E-01
             2.0000000000000001E-01    2.9999999999999999E-01    2.0000000000000001E-01
             2.0000000000000001E-01    2.9999999999999999E-01    2.0000000000000001E-01
             2.0000000000000001E-01    2.9999999999999999E-01    2.0000000000000001E-01
             2.0000000000000001E-01    2.9999999999999999E-01    2.0000000000000001E-01
             2.0000000000000001E-01    2.9999999999999999E-01    2.0000000000000001E-01
             2.0000000000000001E-01    2.9999999999999999E-01    2.0000000000000001E-01
             2.0000000000000001E-01    2.9999999999999999E-01    2.0000000000000001E-01
             2.0000000000000001E-01    2.9999999999999999E-01    2.0000000000000001E-01
             2.0000000000000001E-01    2.9999999999999999E-01    2.0000000000000001E-01
             2.0000000000000001E-01    2.9999999999999999E-01    2.0000000000000001E-01
             2.0000000000000001E-01    2.9999999999999999E-01    2.0000000000000001E-01
             2.0000000000000001E-01    2.9999999999999999E-01    2.0000000000000001E-01
             2.0000000000000001E-01    2.9999999999999999E-01    2.0000000000000001E-01
             2.0000000000000001E-01    2.9999999999999999E-01    2.0000000000000001E-01
             2.0000000000000001E-01    2.9999999999999999E-01    2.0000000000000001E-01
             2.0000000000000001E-01    2.9999999999999999E-01    2.0000000000000001E-01
             2.0000000000000001E-01    2.9999999999999999E-01    2.0000000000000001E-01
             2.0000000000000001E-01    2.9999999999999999E-01    2.0000000000000001E-01
             2.0000000000000001E-01    2.9999999999999999E-01    2.0000000000000001E-01
             2.0000000000000001E-01    2.9999999999999999E-01    2.0000000000000001E-01
             2.0000000000000001E-01    2.9999999999999999E-01    2.0000000000000001E-01
             2.0000000000000001E-01    2.9999999999999999E-01    2.0000000000000001E-01
             2.0000000000000001E-01    2.9999999999999999E-01    2.0000000000000001E-01
             2.0000000000000001E-01    2.9999999999999999E-01    2.0000000000000001E-01
             2.0000000000000001E-01    2.9999999999999999E-01    2.0000000000000001E-01
             2.0000000000000001E-01    2.9999999999999999E-01    2.0000000000000001E-01
             2.0000000000000001E-01    2.9999999999999999E-01    2.0000000000000001E-01
             2.0000000000000001E-01    2.9999999999999999E-01    2.0000000000000001E-01
             2.0000000000000001E-01    2.9999999999999999E-01    2.0000000000000001E-01
             2.0000000000000001E-01    2.9999999999999999E-01    2.0000000000000001E-01
             2.0000000000000001E-01    2.9999999999999999E-01    2.0000000000000001E-01
             2.0000000000000001E-01    2.9999999999999999E-01    2.0000000000000001E-01
             2.0000000000000001E-01    2.9999999999999999E-01    2.0000000000000001E-01
       &END SPAWNED_HILLS_SCALE
       &SPAWNED_HILLS_HEIGHT
             3.0000000000000001E-03
             3.0000000000000001E-03
             3.0000000000000001E-03
             3.0000000000000001E-03
             3.0000000000000001E-03
             3.0000000000000001E-03
             3.0000000000000001E-03
             3.0000000000000001E-03
             3.0000000000000001E-03
             3.0000000000000001E-03
             3.0000000000000001E-03
             3.0000000000000001E-03
             3.0000000000000001E-03
             3.0000000000000001E-03
             3.0000000000000001E-03
             3.0000000000000001E-03
             3.0000000000000001E-03
             3.0000000000000001E-03
             3.0000000000000001E-03
             3.0000000000000001E-03
             3.0000000000000001E-03
             3.0000000000000001E-03
             3.0000000000000001E-03
             3.0000000000000001E-03
             3.0000000000000001E-03
             3.0000000000000001E-03
             3.0000000000000001E-03
             3.0000000000000001E-03
             3.0000000000000001E-03
             3.0000000000000001E-03
             3.0000000000000001E-03
             3.0000000000000001E-03
             3.0000000000000001E-03
             3.0000000000000001E-03
             3.0000000000000001E-03
             3.0000000000000001E-03
             3.0000000000000001E-03
             3.0000000000000001E-03
             3.0000000000000001E-03
             3.0000000000000001E-03
             3.0000000000000001E-03
             3.0000000000000001E-03
             3.0000000000000001E-03
             3.0000000000000001E-03
             3.0000000000000001E-03
             3.0000000000000001E-03
             3.0000000000000001E-03
             3.0000000000000001E-03
             3.0000000000000001E-03
             3.0000000000000001E-03
             3.0000000000000001E-03
             3.0000000000000001E-03
             3.0000000000000001E-03
             3.0000000000000001E-03
             3.0000000000000001E-03
             3.0000000000000001E-03
             3.0000000000000001E-03
             3.0000000000000001E-03
             3.0000000000000001E-03
             3.0000000000000001E-03
             3.0000000000000001E-03
             3.0000000000000001E-03
             3.0000000000000001E-03
             3.0000000000000001E-03
             3.0000000000000001E-03
             3.0000000000000001E-03
             3.0000000000000001E-03
             3.0000000000000001E-03
             3.0000000000000001E-03
             3.0000000000000001E-03
             3.0000000000000001E-03
             3.0000000000000001E-03
             3.0000000000000001E-03
             3.0000000000000001E-03
             3.0000000000000001E-03
             3.0000000000000001E-03
             3.0000000000000001E-03
             3.0000000000000001E-03
             3.0000000000000001E-03
             3.0000000000000001E-03
       &END SPAWNED_HILLS_HEIGHT
     &END METADYN
   &END FREE_ENERGY
   &CONSTRAINT
     &FIXED_ATOMS
       LIST  48 51 54 57 60 45 59 44 58 \
        43
     &END FIXED_ATOMS
   &END CONSTRAINT
   &PRINT
     &TRAJECTORY  SILENT
       &EACH
         MD  1
       &END EACH
     &END TRAJECTORY
     &VELOCITIES  OFF
     &END VELOCITIES
     &RESTART  SILENT
       ADD_LAST  NUMERIC
       &EACH
         MD  1000
       &END EACH
     &END RESTART
     &RESTART_HISTORY  SILENT
       &EACH
         MD  2000
       &END EACH
     &END RESTART_HISTORY
   &END PRINT
 &END MOTION
 &FORCE_EVAL
   METHOD  QS
   &EXTERNAL_POTENTIAL
     ATOMS_LIST  61..70
     FUNCTION 0.000000000001*(Z^2)^4
   &END EXTERNAL_POTENTIAL
   &EXTERNAL_POTENTIAL
     ATOMS_LIST  61..70
     FUNCTION 0.0000000000001*(X^2)^4
   &END EXTERNAL_POTENTIAL
   &EXTERNAL_POTENTIAL
     ATOMS_LIST  61..70
     FUNCTION 0.0000000000001*(Y^2)^4
   &END EXTERNAL_POTENTIAL
   &DFT
     &SCF
       MAX_SCF  30
       EPS_SCF     1.0000000000000000E-04
       SCF_GUESS  ATOMIC
       &OT  T
         MINIMIZER  DIIS
         PRECONDITIONER  FULL_SINGLE_INVERSE
       &END OT
       &OUTER_SCF  T
         EPS_SCF     1.0000000000000000E-04
         MAX_SCF  5
       &END OUTER_SCF
       &PRINT
         &RESTART  OFF
         &END RESTART
         &RESTART_HISTORY  OFF
         &END RESTART_HISTORY
       &END PRINT
     &END SCF
     &QS
       METHOD  DFTB
       &DFTB
         SELF_CONSISTENT  T
         DO_EWALD  T
         DISPERSION  T
         &PARAMETER
           PARAM_FILE_PATH ./DFTB/scc
           PARAM_FILE_NAME scc_parameter
           UFF_FORCE_FIELD uff_table
         &END PARAMETER
       &END DFTB
     &END QS
     &POISSON
       PERIODIC  XYZ
       &EWALD
         EWALD_TYPE  SPME
         GMAX  25
         O_SPLINE  5
       &END EWALD
     &END POISSON
   &END DFT
   &SUBSYS
     &CELL
       A     1.2300000000000001E+01    0.0000000000000000E+00    0.0000000000000000E+00
       B     0.0000000000000000E+00    1.2780000000000001E+01    0.0000000000000000E+00
       C     0.0000000000000000E+00    0.0000000000000000E+00    2.0000000000000004E+01
       PERIODIC  XYZ
       MULTIPLE_UNIT_CELL  1 1 1
     &END CELL
     &COORD
C   -5.8230670253660373E+00   -6.9311316717627269E+00   -3.1053842309758273E-01
C   -5.7500339765209887E+00   -1.4334329744236847E+00   -1.9250891514801330E-01
C   -5.8306240257466468E+00    1.8668922218492225E+00   -3.6347299581176751E-01
C   -2.5001005519032153E+00   -5.5803713368123837E+00   -1.1540438308708525E-01
C   -2.1900940577954544E+00   -2.0827286251906094E+00   -2.9294648725068850E-01
C   -2.3420863600416575E+00    2.4574078233189272E+00   -8.9045340613766649E-02
C   -5.2804575777930940E-01   -5.4173879209125078E+00   -5.1167034549060586E-01
C   -6.0758902051115471E-01   -2.4542002847455846E+00    3.3898558187461808E-01
C   -5.0792116710777357E-01    2.5000119639544218E+00    2.5067952265537408E-01
C    1.9619697046221425E+00   -6.2720338806183022E+00   -9.1113645653419395E-02
C    1.2188350305024354E+00   -2.3528431659505218E+00    3.6039729752889035E-02
C    1.1824635774440264E+00    2.2704325895602149E+00   -1.1513592285606321E-01
C    4.8253447812336621E+00   -6.0714775511640386E+00    4.3292497974046135E-02
C    4.7281039803523370E+00   -1.6341803271664521E+00   -4.7678812980211448E-02
C    4.3391499764723394E+00    3.3842000300956609E+00    8.5301076057111835E-01
C   -5.8215077519232352E+00   -4.0766698812494591E+00   -3.3735805081903203E-01
C   -5.7907547858962083E+00   -3.2452390425701899E-01   -2.7327552933663751E-01
C   -5.7896734744851566E+00    4.6302078302417602E+00   -2.1481429434474639E-01
C   -2.3480569453416051E+00   -4.5107600532644652E+00   -1.8395284037145676E-01
C   -2.1026574833169254E+00   -1.0448143673992074E+00   -2.5172432846201503E-01
C   -2.4144135028283333E+00    3.5344645017069971E+00   -2.7393629853726381E-01
C   -5.4285853852264743E-01   -4.3859804896600307E+00   -3.0677412069427662E-01
C   -5.2376085968188968E-01    1.5638466417232669E-01   -2.2284953762017237E-01
C   -4.9584191696564994E-01    3.5478772804383114E+00    5.6024891212802276E-02
C    1.2638796690584191E+00   -4.3873339872758654E+00   -2.9385011538484962E-01
C    1.2174684833423817E+00    3.0926757727838278E-01    2.4151496045092496E-01
C    1.9311799314293472E+00    4.3567826180713398E+00   -2.8341419930963579E-01
C    4.7563882787046872E+00   -5.0024667791460429E+00   -6.2446384375790427E-04
C    4.6616745081904289E+00   -4.0753340184043868E-01    1.2252533813487728E-02
C    4.6865217455153960E+00    4.2271191670239627E+00    4.2393322400795952E-01
C   -4.1235645495774360E+00   -2.5502496178708909E+00    1.1639818185062628E-01
C   -4.9640455405381259E+00    2.9558045710206726E-01   -3.6492984845963589E-01
C   -4.7456525907303995E+00    4.8034964168173255E+00    8.8408276270027890E-03
C   -1.4963561653654895E+00   -3.9213046879060007E+00   -1.9451851326031511E-01
C   -1.2889621632999202E+00   -4.4339530134095162E-01   -5.4875718792948086E-02
C   -1.4377747141494650E+00    3.9869374599013532E+00   -1.6878215696987625E-01
C    3.6214877420704195E-01   -3.9240516761775437E+00   -6.6314536615223310E-02
C    2.4209628918145035E-01    7.8561903332051530E-01    1.2242405678325882E-01
C    9.4989015085117867E-01    4.8817783623912687E+00   -2.8071156725018676E-01
C    2.1776084958250146E+00   -3.8548036695555199E+00   -3.6922619216961888E-01
C    2.1688025249505722E+00    7.9139581784064372E-01    5.8518428646374437E-02
C    2.8448682964561680E+00    4.8837522589384372E+00   -1.8802627590796545E-01
C    5.4505601845645426E+00   -4.0071120749127020E+00   -1.4611641701713424E-01
C    5.4505601845645426E+00    2.5288792508729685E-01   -1.4611641701713424E-01
C    5.4505601845645426E+00    4.5128879250872798E+00   -1.4611641701713424E-01
C   -4.9164027987875256E+00   -1.9710704260732732E+00    2.7783786410440152E-02
C   -4.8749546675585158E+00    1.3533207614552061E+00   -4.1018437093452853E-01
C   -4.3894398154354581E+00    5.9328879250872797E+00   -1.4611641701713424E-01
C   -1.5463997613582201E+00   -2.8546789585399117E+00   -1.5610833898877269E-02
C   -1.4865637357600334E+00    2.0404087172514465E+00    3.1583138986305864E-01
C   -1.9294398154354353E+00    5.9328879250872797E+00   -1.4611641701713424E-01
C    3.3444506899722726E-01   -2.8739081512611966E+00    2.3668227721358037E-01
C    2.7017787659733683E-01    1.8442275604096106E+00    1.3455925135053823E-01
C    5.3056018456456677E-01    5.9328879250872797E+00   -1.4611641701713424E-01
C    2.1735484325030048E+00   -2.7644149530153710E+00   -2.3765487975369887E-01
C    2.1521068584898360E+00    1.8866792012626259E+00   -2.6933131084559681E-02
C    2.9905601845645662E+00    5.9328879250872797E+00   -1.4611641701713424E-01
C    5.4505601845645426E+00   -2.5871120749127021E+00   -1.4611641701713424E-01
C    5.4505601845645426E+00    1.6728879250872999E+00   -1.4611641701713424E-01
C    5.4505601845645426E+00    5.9328879250872797E+00   -1.4611641701713424E-01
H    6.4048314159961095E-01   -1.1351818357814458E-01    4.8726806382935353E+00
H    1.8324032097654253E+00    2.0316226324498317E+00    2.8204727344931104E+00
O   -2.0329781806631719E-01   -4.1416253831865418E-01    4.5004172973982657E+00
O   -1.8627258776342723E+00    2.5526079692696640E-01    3.6814593265949642E+00
O   -7.1093949669687928E-01   -9.1643603572673005E-01    2.6078098343333962E+00
O    2.2837508108909605E+00    1.6309520626200886E+00    3.6892003214285518E+00
O    3.9242666416252883E+00    2.4296676891154765E+00    2.9851341176794071E+00
O    4.0561614369857031E+00    1.0442180371666496E+00    4.4402012393777923E+00
N   -9.3408818776739588E-01   -3.9428351522331784E-01    3.6186906849025209E+00
N    3.4922803723763303E+00    1.5964024636622773E+00    3.6561928756748738E+00
     &END COORD
     &VELOCITY
           1.8983369342026192E-05    7.9642007800696376E-05    1.3359533368218212E-04
          -7.9482004360139591E-05   -1.2654752588153455E-04   -3.7979439131969022E-04
          -1.1174871124557597E-04    2.8953135033188392E-05    1.4083525824676717E-04
          -1.0819031696958116E-04    1.2249133074106183E-04    2.0773879109855874E-04
          -1.1864091113112162E-05    1.3209638966514428E-04    8.9963319473272563E-05
          -1.6640374596461115E-04    1.1628652900001320E-04    2.1325483817263065E-04
          -1.1175253715562862E-04   -2.0106786570834020E-04   -7.5048262941211831E-05
          -3.3036519953115306E-05    5.2608082422321587E-05    1.6110438735287907E-04
          -1.6820946513311120E-05    7.0189419208163654E-05   -6.8105787746188754E-05
          -1.5724953395325483E-04    1.2713803663106531E-06    2.7711465477224740E-04
          -5.6943882197257629E-05   -8.9776262090141679E-05    3.2781551325666706E-04
          -4.6356676772485922E-06    8.4625649835991967E-05    1.7869774782908177E-04
          -1.1073974117936957E-04    9.1023992545052741E-06   -2.7910471295025457E-04
           2.8286948947870576E-05    3.5527123087386509E-05    9.3297234985042165E-05
          -5.5253434638659652E-05   -3.3578140766971364E-04   -7.0919198388331333E-04