&GLOBAL                        
   PRINT_LEVEL SILENT
   PROJECT thermalization_bulk
   RUN_TYPE MD            
&END GLOBAL


&MOTION			       
 &MD
  
  &PRINT
       &ENERGY SILENT
          &EACH
             MD 10
          &END
       &END
    &END

   ENSEMBLE NVT
   STEPS 100000
   TIMESTEP 0.5             !fs
   TEMPERATURE 20         !K

    &THERMOSTAT
      TYPE CSVR
      &CSVR
        TIMECON 2000   
      &END
    &END THERMOSTAT
  &END MD
 
 &PRINT
  &RESTART
    &EACH
        MD 0
    &END
  &END
  &RESTART_HISTORY OFF
  &END
  &TRAJECTORY on
   FORMAT xyz		       
   &EACH		       
    MD 1000		       
   &END EACH
  &END TRAJECTORY
 &END PRINT
&END MOTION


&FORCE_EVAL
 METHOD Fist
 STRESS_TENSOR ANALYTICAL
 &MM
    &FORCEFIELD    
      &CHARGE
        ATOM Ar
        CHARGE 0.0
      &END
      &NONBONDED   
        &LENNARD-JONES
          atoms Ar Ar
          EPSILON 119.8
          SIGMA 3.405
          RCUT 8.4
        &END LENNARD-JONES
      &END NONBONDED
    &END FORCEFIELD
  &POISSON
   PERIODIC XYZ
   &EWALD
    EWALD_TYPE none
   &END EWALD
  &END POISSON
  &PRINT
   &FF_INFO OFF
    SPLINE_DATA
    SPLINE_INFO
   &END FF_INFO
  &END PRINT
 &END MM
 &PRINT
  &FORCES off
  &END FORCES
  &GRID_INFORMATION
  &END GRID_INFORMATION
 &END PRINT
 &SUBSYS
  &CELL
   ABC 31.614 31.614 31.614
   PERIODIC XYZ
 &END CELL
  &TOPOLOGY
      COORD_FILE_NAME crystal_6x6.xyz
      COORDINATE xyz
      &CENTER_COORDINATES
      &END
  &END
 &END SUBSYS
&END FORCE_EVAL
