 # Version information for this restart file 
 # current date 2023-04-15 12:00:11.205
 # current working dir /scratch/snx3000/ramador/MMM_2023/ex7/ethanol
 # Program compiled at                              Mon 21 Feb 15:39:03 CET 2022
 # Program compiled on                                                  daint102
 # Program compiled for                                         CP2K-9.1-CrayGNU
 # Source code revision number                                       git:d8d7100
 &GLOBAL
   PRINT_LEVEL  LOW
   PROJECT_NAME ethanol
   RUN_TYPE  GEO_OPT
 &END GLOBAL
 &MOTION
   &GEO_OPT
     OPTIMIZER  BFGS
     MAX_ITER  200
     MAX_DR     1.0000000000000000E-02
     MAX_FORCE     1.0000000000000000E-03
     RMS_DR     3.0000000000000001E-03
     RMS_FORCE     2.9999999999999997E-04
     STEP_START_VAL  1
     &BFGS
       USE_MODEL_HESSIAN  T
     &END BFGS
   &END GEO_OPT
   &PRINT
     &TRAJECTORY  ON
       FORMAT  XMOL
       &EACH
         GEO_OPT  1
       &END EACH
     &END TRAJECTORY
   &END PRINT
 &END MOTION
 &FORCE_EVAL
   METHOD  QS
   &DFT
     BASIS_SET_FILE_NAME BASIS_MOLOPT
     POTENTIAL_FILE_NAME GTH_POTENTIALS
     CHARGE  0
     &SCF
       MAX_SCF  50
       EPS_SCF     1.0000000000000000E-04
       SCF_GUESS  RESTART
       &OT  T
         MINIMIZER  DIIS
         N_HISTORY_VEC  7
         PRECONDITIONER  FULL_SINGLE_INVERSE
       &END OT
       &OUTER_SCF  T
         EPS_SCF     1.0000000000000000E-04
         MAX_SCF  500
       &END OUTER_SCF
     &END SCF
     &QS
       METHOD  GAPW
     &END QS
     &MGRID
       CUTOFF     4.0000000000000000E+02
     &END MGRID
     &XC
       DENSITY_CUTOFF     1.0000000000000000E-10
       GRADIENT_CUTOFF     1.0000000000000000E-10
       TAU_CUTOFF     1.0000000000000000E-10
       &XC_FUNCTIONAL  NO_SHORTCUT
         &PBE  T
         &END PBE
       &END XC_FUNCTIONAL
     &END XC
     &POISSON
       POISSON_SOLVER  WAVELET
       PERIODIC  NONE
     &END POISSON
     &PRINT
       &MO_CUBES  SILENT
         ADD_LAST  SYMBOLIC
         NLUMO  1
         NHOMO  1
       &END MO_CUBES
     &END PRINT
   &END DFT
   &SUBSYS
     &CELL
       A     1.5000000000000002E+01    0.0000000000000000E+00    0.0000000000000000E+00
       B     0.0000000000000000E+00    1.5000000000000002E+01    0.0000000000000000E+00
       C     0.0000000000000000E+00    0.0000000000000000E+00    1.5000000000000002E+01
       PERIODIC  NONE
       MULTIPLE_UNIT_CELL  1 1 1
     &END CELL
     &COORD
O    6.3102948316288057E+00    6.9091924017852460E+00    7.5000123959406286E+00
C    7.3708921205684383E+00    7.8761975585328541E+00    7.4999942569131308E+00
C    8.6835734509047988E+00    7.1157942467040796E+00    7.4999754845112312E+00
H    5.4694561345949779E+00    7.3929897958852617E+00    7.5000308837187344E+00
H    7.3145132784876230E+00    8.5260739483075749E+00    8.3900994421142983E+00
H    7.3145247880319610E+00    8.5261153696605927E+00    6.6099065531793535E+00
H    9.5357761136318242E+00    7.8071403164418651E+00    7.4999778757129709E+00
H    8.7586945547052597E+00    6.4759901238886703E+00    8.3875020041717558E+00
H    8.7587452941781709E+00    6.4759498077796689E+00    6.6125009525594010E+00
     &END COORD
     &KIND H
       BASIS_SET TZVP-MOLOPT-GTH
       POTENTIAL GTH-PBE-q1
       &POTENTIAL
 1
  0.2000000000000000E+00 2 -0.4178900440000000E+01  0.7244633100000000E+00
 0
         # Potential name:  GTH-PBE-Q1  for symbol:  H
         # Potential read from the potential filename: GTH_POTENTIALS
       &END POTENTIAL
     &END KIND
     &KIND C
       BASIS_SET TZVP-MOLOPT-GTH
       POTENTIAL GTH-PBE-q4
       &POTENTIAL
 2 2
  0.3384712400000000E+00 2 -0.8803673979999999E+01  0.1339210850000000E+01
 2
  0.3025757500000000E+00 1  0.9622486650000001E+01
  0.2915069400000000E+00 0
         # Potential name:  GTH-PBE-Q4  for symbol:  C
         # Potential read from the potential filename: GTH_POTENTIALS
       &END POTENTIAL
     &END KIND
     &KIND O
       BASIS_SET TZVP-MOLOPT-GTH
       POTENTIAL GTH-PBE-q6
       &POTENTIAL
 2 4
  0.2445543000000000E+00 2 -0.1666721480000000E+02  0.2487311320000000E+01
 2
  0.2209559200000000E+00 1  0.1833745811000000E+02
  0.2113324700000000E+00 0
         # Potential name:  GTH-PBE-Q6  for symbol:  O
         # Potential read from the potential filename: GTH_POTENTIALS
       &END POTENTIAL
     &END KIND
     &TOPOLOGY
       COORD_FILE_NAME ethanol.xyz
       COORD_FILE_FORMAT  XYZ
       NUMBER_OF_ATOMS  9
       MULTIPLE_UNIT_CELL  1 1 1
       &CENTER_COORDINATES  T
       &END CENTER_COORDINATES
     &END TOPOLOGY
   &END SUBSYS
   &PRINT
     &PROGRAM_RUN_INFO  SILENT
       &EACH
         GEO_OPT  1
       &END EACH
     &END PROGRAM_RUN_INFO
     &FORCES  OFF
     &END FORCES
     &GRID_INFORMATION  SILENT
     &END GRID_INFORMATION
   &END PRINT
 &END FORCE_EVAL
