&BANDS
prefix='si'
outdir='./'
filband='si.band'
/
